p tw 120 133
1 2
2 33
3 14
3 59
4 5
5 6
6 7
7 8
8 9
9 10
10 11
11 12
12 13
13 15
13 23
14 25
15 16
15 23
16 17
17 18
18 19
19 20
20 21
21 22
22 23
23 24
25 26
26 27
27 28
28 29
29 30
30 31
31 32
32 34
32 36
33 44
34 35
35 45
36 37
37 38
37 40
38 39
39 42
40 41
41 42
42 43
43 45
44 55
45 46
46 47
47 48
48 49
49 50
50 51
50 85
51 52
52 53
53 54
54 56
55 66
55 88
56 57
57 58
58 85
59 60
60 61
61 62
62 63
62 65
63 64
64 74
65 67
66 77
66 88
67 68
67 70
68 69
69 72
70 71
71 72
72 73
73 74
74 75
75 76
76 78
77 23
78 79
79 80
80 81
81 82
82 83
83 84
84 85
85 86
86 87
87 89
88 99
89 90
90 91
91 92
92 93
92 114
93 94
94 95
95 96
96 97
97 98
98 100
99 110
100 101
101 102
102 103
103 104
104 105
104 114
105 106
105 114
106 107
107 108
108 109
109 111
110 3
111 112
112 113
113 114
114 115
115 116
115 118
116 117
117 120
118 119
119 120
120 4
